c PMC file for PBN ISCAS/c499_distill_ISCAS/c499_miter written by probABC
p cnf 782 2205
c ind 1 2 3 4 5 6 7 8 9 10 11 12 13 14 15 16 17 18 19 20 21 22 23 24 25 26 27 28 29 30 31 32 33 34 35 36 37 38 39 40 41 775 776 777 778 779 780 0
45 1 -5 0
-45 -1 0
-45 5 0
46 -1 5 0
-46 1 0
-46 -5 0
47 45 46 0
-47 -45 0
-47 -46 0
48 9 -13 0
-48 -9 0
-48 13 0
49 -9 13 0
-49 9 0
-49 -13 0
50 48 49 0
-50 -48 0
-50 -49 0
51 -47 50 0
-51 47 0
-51 -50 0
52 47 -50 0
-52 -47 0
-52 50 0
53 51 52 0
-53 -51 0
-53 -52 0
54 -33 -41 0
-54 33 0
-54 41 0
55 17 -18 0
-55 -17 0
-55 18 0
56 -17 18 0
-56 17 0
-56 -18 0
57 55 56 0
-57 -55 0
-57 -56 0
58 19 -20 0
-58 -19 0
-58 20 0
59 -19 20 0
-59 19 0
-59 -20 0
60 58 59 0
-60 -58 0
-60 -59 0
61 -57 60 0
-61 57 0
-61 -60 0
62 57 -60 0
-62 -57 0
-62 60 0
63 61 62 0
-63 -61 0
-63 -62 0
64 21 -22 0
-64 -21 0
-64 22 0
65 -21 22 0
-65 21 0
-65 -22 0
66 64 65 0
-66 -64 0
-66 -65 0
67 23 -24 0
-67 -23 0
-67 24 0
68 -23 24 0
-68 23 0
-68 -24 0
69 67 68 0
-69 -67 0
-69 -68 0
70 -66 69 0
-70 66 0
-70 -69 0
71 66 -69 0
-71 -66 0
-71 69 0
72 70 71 0
-72 -70 0
-72 -71 0
73 -63 72 0
-73 63 0
-73 -72 0
74 63 -72 0
-74 -63 0
-74 72 0
75 73 74 0
-75 -73 0
-75 -74 0
76 54 75 0
-76 -54 0
-76 -75 0
77 -54 -75 0
-77 54 0
-77 75 0
78 76 77 0
-78 -76 0
-78 -77 0
79 -53 78 0
-79 53 0
-79 -78 0
80 53 -78 0
-80 -53 0
-80 78 0
81 79 80 0
-81 -79 0
-81 -80 0
82 17 -21 0
-82 -17 0
-82 21 0
83 -17 21 0
-83 17 0
-83 -21 0
84 82 83 0
-84 -82 0
-84 -83 0
85 25 -29 0
-85 -25 0
-85 29 0
86 -25 29 0
-86 25 0
-86 -29 0
87 85 86 0
-87 -85 0
-87 -86 0
88 -84 87 0
-88 84 0
-88 -87 0
89 84 -87 0
-89 -84 0
-89 87 0
90 88 89 0
-90 -88 0
-90 -89 0
91 -37 -41 0
-91 37 0
-91 41 0
92 1 -2 0
-92 -1 0
-92 2 0
93 -1 2 0
-93 1 0
-93 -2 0
94 92 93 0
-94 -92 0
-94 -93 0
95 3 -4 0
-95 -3 0
-95 4 0
96 -3 4 0
-96 3 0
-96 -4 0
97 95 96 0
-97 -95 0
-97 -96 0
98 -94 97 0
-98 94 0
-98 -97 0
99 94 -97 0
-99 -94 0
-99 97 0
100 98 99 0
-100 -98 0
-100 -99 0
101 5 -6 0
-101 -5 0
-101 6 0
102 -5 6 0
-102 5 0
-102 -6 0
103 101 102 0
-103 -101 0
-103 -102 0
104 7 -8 0
-104 -7 0
-104 8 0
105 -7 8 0
-105 7 0
-105 -8 0
106 104 105 0
-106 -104 0
-106 -105 0
107 -103 106 0
-107 103 0
-107 -106 0
108 103 -106 0
-108 -103 0
-108 106 0
109 107 108 0
-109 -107 0
-109 -108 0
110 -100 109 0
-110 100 0
-110 -109 0
111 100 -109 0
-111 -100 0
-111 109 0
112 110 111 0
-112 -110 0
-112 -111 0
113 91 112 0
-113 -91 0
-113 -112 0
114 -91 -112 0
-114 91 0
-114 112 0
115 113 114 0
-115 -113 0
-115 -114 0
116 -90 115 0
-116 90 0
-116 -115 0
117 90 -115 0
-117 -90 0
-117 115 0
118 116 117 0
-118 -116 0
-118 -117 0
119 18 -22 0
-119 -18 0
-119 22 0
120 -18 22 0
-120 18 0
-120 -22 0
121 119 120 0
-121 -119 0
-121 -120 0
122 26 -30 0
-122 -26 0
-122 30 0
123 -26 30 0
-123 26 0
-123 -30 0
124 122 123 0
-124 -122 0
-124 -123 0
125 -121 124 0
-125 121 0
-125 -124 0
126 121 -124 0
-126 -121 0
-126 124 0
127 125 126 0
-127 -125 0
-127 -126 0
128 -38 -41 0
-128 38 0
-128 41 0
129 9 -10 0
-129 -9 0
-129 10 0
130 -9 10 0
-130 9 0
-130 -10 0
131 129 130 0
-131 -129 0
-131 -130 0
132 11 -12 0
-132 -11 0
-132 12 0
133 -11 12 0
-133 11 0
-133 -12 0
134 132 133 0
-134 -132 0
-134 -133 0
135 -131 134 0
-135 131 0
-135 -134 0
136 131 -134 0
-136 -131 0
-136 134 0
137 135 136 0
-137 -135 0
-137 -136 0
138 -42 137 0
-138 42 0
-138 -137 0
139 42 -137 0
-139 -42 0
-139 137 0
140 138 139 0
-140 -138 0
-140 -139 0
141 13 -14 0
-141 -13 0
-141 14 0
142 -13 14 0
-142 13 0
-142 -14 0
143 141 142 0
-143 -141 0
-143 -142 0
144 15 -16 0
-144 -15 0
-144 16 0
145 -15 16 0
-145 15 0
-145 -16 0
146 144 145 0
-146 -144 0
-146 -145 0
147 -143 146 0
-147 143 0
-147 -146 0
148 143 -146 0
-148 -143 0
-148 146 0
149 147 148 0
-149 -147 0
-149 -148 0
150 140 149 0
-150 -140 0
-150 -149 0
151 -140 -149 0
-151 140 0
-151 149 0
152 150 151 0
-152 -150 0
-152 -151 0
153 128 152 0
-153 -128 0
-153 -152 0
154 -128 -152 0
-154 128 0
-154 152 0
155 153 154 0
-155 -153 0
-155 -154 0
156 -127 155 0
-156 127 0
-156 -155 0
157 127 -155 0
-157 -127 0
-157 155 0
158 156 157 0
-158 -156 0
-158 -157 0
159 19 -23 0
-159 -19 0
-159 23 0
160 -19 23 0
-160 19 0
-160 -23 0
161 159 160 0
-161 -159 0
-161 -160 0
162 27 -31 0
-162 -27 0
-162 31 0
163 -27 31 0
-163 27 0
-163 -31 0
164 162 163 0
-164 -162 0
-164 -163 0
165 -161 164 0
-165 161 0
-165 -164 0
166 161 -164 0
-166 -161 0
-166 164 0
167 165 166 0
-167 -165 0
-167 -166 0
168 -39 -41 0
-168 39 0
-168 41 0
169 -100 -140 0
-169 100 0
-169 140 0
170 100 140 0
-170 -100 0
-170 -140 0
171 169 170 0
-171 -169 0
-171 -170 0
172 168 171 0
-172 -168 0
-172 -171 0
173 -168 -171 0
-173 168 0
-173 171 0
174 172 173 0
-174 -172 0
-174 -173 0
175 -167 174 0
-175 167 0
-175 -174 0
176 167 -174 0
-176 -167 0
-176 174 0
177 175 176 0
-177 -175 0
-177 -176 0
178 20 -24 0
-178 -20 0
-178 24 0
179 -20 24 0
-179 20 0
-179 -24 0
180 178 179 0
-180 -178 0
-180 -179 0
181 28 -32 0
-181 -28 0
-181 32 0
182 -28 32 0
-182 28 0
-182 -32 0
183 181 182 0
-183 -181 0
-183 -182 0
184 -180 183 0
-184 180 0
-184 -183 0
185 180 -183 0
-185 -180 0
-185 183 0
186 184 185 0
-186 -184 0
-186 -185 0
187 -40 -41 0
-187 40 0
-187 41 0
188 -109 149 0
-188 109 0
-188 -149 0
189 109 -149 0
-189 -109 0
-189 149 0
190 188 189 0
-190 -188 0
-190 -189 0
191 187 190 0
-191 -187 0
-191 -190 0
192 -187 -190 0
-192 187 0
-192 190 0
193 191 192 0
-193 -191 0
-193 -192 0
194 -186 193 0
-194 186 0
-194 -193 0
195 186 -193 0
-195 -186 0
-195 193 0
196 194 195 0
-196 -194 0
-196 -195 0
197 2 -6 0
-197 -2 0
-197 6 0
198 -2 6 0
-198 2 0
-198 -6 0
199 197 198 0
-199 -197 0
-199 -198 0
200 10 -14 0
-200 -10 0
-200 14 0
201 -10 14 0
-201 10 0
-201 -14 0
202 200 201 0
-202 -200 0
-202 -201 0
203 -199 202 0
-203 199 0
-203 -202 0
204 199 -202 0
-204 -199 0
-204 202 0
205 203 204 0
-205 -203 0
-205 -204 0
206 -34 -41 0
-206 34 0
-206 41 0
207 25 -26 0
-207 -25 0
-207 26 0
208 -25 26 0
-208 25 0
-208 -26 0
209 207 208 0
-209 -207 0
-209 -208 0
210 27 -28 0
-210 -27 0
-210 28 0
211 -27 28 0
-211 27 0
-211 -28 0
212 210 211 0
-212 -210 0
-212 -211 0
213 -209 212 0
-213 209 0
-213 -212 0
214 209 -212 0
-214 -209 0
-214 212 0
215 213 214 0
-215 -213 0
-215 -214 0
216 29 -30 0
-216 -29 0
-216 30 0
217 -29 30 0
-217 29 0
-217 -30 0
218 216 217 0
-218 -216 0
-218 -217 0
219 31 -32 0
-219 -31 0
-219 32 0
220 -31 32 0
-220 31 0
-220 -32 0
221 219 220 0
-221 -219 0
-221 -220 0
222 -218 221 0
-222 218 0
-222 -221 0
223 218 -221 0
-223 -218 0
-223 221 0
224 222 223 0
-224 -222 0
-224 -223 0
225 -215 224 0
-225 215 0
-225 -224 0
226 215 -224 0
-226 -215 0
-226 224 0
227 225 226 0
-227 -225 0
-227 -226 0
228 206 227 0
-228 -206 0
-228 -227 0
229 -206 -227 0
-229 206 0
-229 227 0
230 228 229 0
-230 -228 0
-230 -229 0
231 -205 230 0
-231 205 0
-231 -230 0
232 205 -230 0
-232 -205 0
-232 230 0
233 231 232 0
-233 -231 0
-233 -232 0
234 3 -7 0
-234 -3 0
-234 7 0
235 -3 7 0
-235 3 0
-235 -7 0
236 234 235 0
-236 -234 0
-236 -235 0
237 11 -15 0
-237 -11 0
-237 15 0
238 -11 15 0
-238 11 0
-238 -15 0
239 237 238 0
-239 -237 0
-239 -238 0
240 -43 239 0
-240 43 0
-240 -239 0
241 43 -239 0
-241 -43 0
-241 239 0
242 240 241 0
-242 -240 0
-242 -241 0
243 -236 -242 0
-243 236 0
-243 242 0
244 236 242 0
-244 -236 0
-244 -242 0
245 243 244 0
-245 -243 0
-245 -244 0
246 -35 -41 0
-246 35 0
-246 41 0
247 -63 215 0
-247 63 0
-247 -215 0
248 63 -215 0
-248 -63 0
-248 215 0
249 247 248 0
-249 -247 0
-249 -248 0
250 246 249 0
-250 -246 0
-250 -249 0
251 -246 -249 0
-251 246 0
-251 249 0
252 250 251 0
-252 -250 0
-252 -251 0
253 -245 252 0
-253 245 0
-253 -252 0
254 245 -252 0
-254 -245 0
-254 252 0
255 253 254 0
-255 -253 0
-255 -254 0
256 4 -8 0
-256 -4 0
-256 8 0
257 -4 8 0
-257 4 0
-257 -8 0
258 256 257 0
-258 -256 0
-258 -257 0
259 12 -16 0
-259 -12 0
-259 16 0
260 -12 16 0
-260 12 0
-260 -16 0
261 259 260 0
-261 -259 0
-261 -260 0
262 -258 261 0
-262 258 0
-262 -261 0
263 258 -261 0
-263 -258 0
-263 261 0
264 262 263 0
-264 -262 0
-264 -263 0
265 -36 -41 0
-265 36 0
-265 41 0
266 -72 224 0
-266 72 0
-266 -224 0
267 72 -224 0
-267 -72 0
-267 224 0
268 266 267 0
-268 -266 0
-268 -267 0
269 265 268 0
-269 -265 0
-269 -268 0
270 -265 -268 0
-270 265 0
-270 268 0
271 269 270 0
-271 -269 0
-271 -270 0
272 -264 271 0
-272 264 0
-272 -271 0
273 264 -271 0
-273 -264 0
-273 271 0
274 272 273 0
-274 -272 0
-274 -273 0
275 -81 -233 0
-275 81 0
-275 233 0
276 -255 -275 0
-276 255 0
-276 275 0
277 274 -276 0
-277 -274 0
-277 276 0
278 255 -275 0
-278 -255 0
-278 275 0
279 -274 -278 0
-279 274 0
-279 278 0
280 -81 233 0
-280 81 0
-280 -233 0
281 -255 -280 0
-281 255 0
-281 280 0
282 -274 -281 0
-282 274 0
-282 281 0
283 81 -233 0
-283 -81 0
-283 233 0
284 -255 -283 0
-284 255 0
-284 283 0
285 -274 -284 0
-285 274 0
-285 284 0
286 277 279 0
-286 -277 0
-286 -279 0
287 282 -286 0
-287 -282 0
-287 286 0
288 285 -287 0
-288 -285 0
-288 287 0
289 118 -158 0
-289 -118 0
-289 158 0
290 177 -289 0
-290 -177 0
-290 289 0
291 -196 -290 0
-291 196 0
-291 290 0
292 288 -291 0
-292 -288 0
-292 291 0
293 81 -292 0
-293 -81 0
-293 292 0
294 1 -293 0
-294 -1 0
-294 293 0
295 -1 293 0
-295 1 0
-295 -293 0
296 294 295 0
-296 -294 0
-296 -295 0
297 233 -292 0
-297 -233 0
-297 292 0
298 2 -297 0
-298 -2 0
-298 297 0
299 -2 297 0
-299 2 0
-299 -297 0
300 298 299 0
-300 -298 0
-300 -299 0
301 255 -292 0
-301 -255 0
-301 292 0
302 3 -301 0
-302 -3 0
-302 301 0
303 -3 301 0
-303 3 0
-303 -301 0
304 302 303 0
-304 -302 0
-304 -303 0
305 274 -292 0
-305 -274 0
-305 292 0
306 4 -305 0
-306 -4 0
-306 305 0
307 -4 305 0
-307 4 0
-307 -305 0
308 306 307 0
-308 -306 0
-308 -307 0
309 -177 -289 0
-309 177 0
-309 289 0
310 196 -309 0
-310 -196 0
-310 309 0
311 288 -310 0
-311 -288 0
-311 310 0
312 81 -311 0
-312 -81 0
-312 311 0
313 5 -312 0
-313 -5 0
-313 312 0
314 -5 312 0
-314 5 0
-314 -312 0
315 313 314 0
-315 -313 0
-315 -314 0
316 233 -311 0
-316 -233 0
-316 311 0
317 6 -316 0
-317 -6 0
-317 316 0
318 -6 316 0
-318 6 0
-318 -316 0
319 317 318 0
-319 -317 0
-319 -318 0
320 255 -311 0
-320 -255 0
-320 311 0
321 7 -320 0
-321 -7 0
-321 320 0
322 -7 320 0
-322 7 0
-322 -320 0
323 321 322 0
-323 -321 0
-323 -322 0
324 274 -311 0
-324 -274 0
-324 311 0
325 8 -324 0
-325 -8 0
-325 324 0
326 -8 324 0
-326 8 0
-326 -324 0
327 325 326 0
-327 -325 0
-327 -326 0
328 -118 158 0
-328 118 0
-328 -158 0
329 177 -328 0
-329 -177 0
-329 328 0
330 -196 -329 0
-330 196 0
-330 329 0
331 288 -330 0
-331 -288 0
-331 330 0
332 81 -331 0
-332 -81 0
-332 331 0
333 9 -332 0
-333 -9 0
-333 332 0
334 -9 332 0
-334 9 0
-334 -332 0
335 333 334 0
-335 -333 0
-335 -334 0
336 233 -331 0
-336 -233 0
-336 331 0
337 10 -336 0
-337 -10 0
-337 336 0
338 -10 336 0
-338 10 0
-338 -336 0
339 337 338 0
-339 -337 0
-339 -338 0
340 255 -331 0
-340 -255 0
-340 331 0
341 11 -340 0
-341 -11 0
-341 340 0
342 -11 340 0
-342 11 0
-342 -340 0
343 341 342 0
-343 -341 0
-343 -342 0
344 274 -331 0
-344 -274 0
-344 331 0
345 12 -344 0
-345 -12 0
-345 344 0
346 -12 344 0
-346 12 0
-346 -344 0
347 345 346 0
-347 -345 0
-347 -346 0
348 -177 -328 0
-348 177 0
-348 328 0
349 196 -348 0
-349 -196 0
-349 348 0
350 288 -349 0
-350 -288 0
-350 349 0
351 81 -350 0
-351 -81 0
-351 350 0
352 13 -351 0
-352 -13 0
-352 351 0
353 -13 351 0
-353 13 0
-353 -351 0
354 352 353 0
-354 -352 0
-354 -353 0
355 233 -350 0
-355 -233 0
-355 350 0
356 14 -355 0
-356 -14 0
-356 355 0
357 -14 355 0
-357 14 0
-357 -355 0
358 356 357 0
-358 -356 0
-358 -357 0
359 255 -350 0
-359 -255 0
-359 350 0
360 15 -359 0
-360 -15 0
-360 359 0
361 -15 359 0
-361 15 0
-361 -359 0
362 360 361 0
-362 -360 0
-362 -361 0
363 274 -350 0
-363 -274 0
-363 350 0
364 16 -363 0
-364 -16 0
-364 363 0
365 -16 363 0
-365 16 0
-365 -363 0
366 364 365 0
-366 -364 0
-366 -365 0
367 -118 -158 0
-367 118 0
-367 158 0
368 -177 -367 0
-368 177 0
-368 367 0
369 196 -368 0
-369 -196 0
-369 368 0
370 177 -367 0
-370 -177 0
-370 367 0
371 -196 -370 0
-371 196 0
-371 370 0
372 -196 -348 0
-372 196 0
-372 348 0
373 -196 -309 0
-373 196 0
-373 309 0
374 369 371 0
-374 -369 0
-374 -371 0
375 372 -374 0
-375 -372 0
-375 374 0
376 373 -375 0
-376 -373 0
-376 375 0
377 255 -283 0
-377 -255 0
-377 283 0
378 -274 -377 0
-378 274 0
-378 377 0
379 376 -378 0
-379 -376 0
-379 378 0
380 118 -379 0
-380 -118 0
-380 379 0
381 17 -380 0
-381 -17 0
-381 380 0
382 -17 380 0
-382 17 0
-382 -380 0
383 381 382 0
-383 -381 0
-383 -382 0
384 158 -379 0
-384 -158 0
-384 379 0
385 18 -384 0
-385 -18 0
-385 384 0
386 -18 384 0
-386 18 0
-386 -384 0
387 385 386 0
-387 -385 0
-387 -386 0
388 177 -379 0
-388 -177 0
-388 379 0
389 19 -388 0
-389 -19 0
-389 388 0
390 -19 388 0
-390 19 0
-390 -388 0
391 389 390 0
-391 -389 0
-391 -390 0
392 196 -379 0
-392 -196 0
-392 379 0
393 20 -392 0
-393 -20 0
-393 392 0
394 -20 392 0
-394 20 0
-394 -392 0
395 393 394 0
-395 -393 0
-395 -394 0
396 274 -284 0
-396 -274 0
-396 284 0
397 376 -396 0
-397 -376 0
-397 396 0
398 118 -397 0
-398 -118 0
-398 397 0
399 21 -398 0
-399 -21 0
-399 398 0
400 -21 398 0
-400 21 0
-400 -398 0
401 399 400 0
-401 -399 0
-401 -400 0
402 158 -397 0
-402 -158 0
-402 397 0
403 22 -402 0
-403 -22 0
-403 402 0
404 -22 402 0
-404 22 0
-404 -402 0
405 403 404 0
-405 -403 0
-405 -404 0
406 177 -397 0
-406 -177 0
-406 397 0
407 23 -406 0
-407 -23 0
-407 406 0
408 -23 406 0
-408 23 0
-408 -406 0
409 407 408 0
-409 -407 0
-409 -408 0
410 196 -397 0
-410 -196 0
-410 397 0
411 24 -410 0
-411 -24 0
-411 410 0
412 -24 410 0
-412 24 0
-412 -410 0
413 411 412 0
-413 -411 0
-413 -412 0
414 255 -280 0
-414 -255 0
-414 280 0
415 -274 -414 0
-415 274 0
-415 414 0
416 376 -415 0
-416 -376 0
-416 415 0
417 118 -416 0
-417 -118 0
-417 416 0
418 25 -417 0
-418 -25 0
-418 417 0
419 -25 417 0
-419 25 0
-419 -417 0
420 418 419 0
-420 -418 0
-420 -419 0
421 158 -416 0
-421 -158 0
-421 416 0
422 26 -421 0
-422 -26 0
-422 421 0
423 -26 421 0
-423 26 0
-423 -421 0
424 422 423 0
-424 -422 0
-424 -423 0
425 177 -416 0
-425 -177 0
-425 416 0
426 27 -425 0
-426 -27 0
-426 425 0
427 -27 425 0
-427 27 0
-427 -425 0
428 426 427 0
-428 -426 0
-428 -427 0
429 196 -416 0
-429 -196 0
-429 416 0
430 28 -429 0
-430 -28 0
-430 429 0
431 -28 429 0
-431 28 0
-431 -429 0
432 430 431 0
-432 -430 0
-432 -431 0
433 274 -281 0
-433 -274 0
-433 281 0
434 376 -433 0
-434 -376 0
-434 433 0
435 118 -434 0
-435 -118 0
-435 434 0
436 29 -435 0
-436 -29 0
-436 435 0
437 -29 435 0
-437 29 0
-437 -435 0
438 436 437 0
-438 -436 0
-438 -437 0
439 158 -434 0
-439 -158 0
-439 434 0
440 30 -439 0
-440 -30 0
-440 439 0
441 -30 439 0
-441 30 0
-441 -439 0
442 440 441 0
-442 -440 0
-442 -441 0
443 177 -434 0
-443 -177 0
-443 434 0
444 31 -443 0
-444 -31 0
-444 443 0
445 -31 443 0
-445 31 0
-445 -443 0
446 444 445 0
-446 -444 0
-446 -445 0
447 196 -434 0
-447 -196 0
-447 434 0
448 32 -447 0
-448 -32 0
-448 447 0
449 -32 447 0
-449 32 0
-449 -447 0
450 448 449 0
-450 -448 0
-450 -449 0
451 -137 149 0
-451 137 0
-451 -149 0
452 137 -149 0
-452 -137 0
-452 149 0
453 451 452 0
-453 -451 0
-453 -452 0
454 128 453 0
-454 -128 0
-454 -453 0
455 -128 -453 0
-455 128 0
-455 453 0
456 454 455 0
-456 -454 0
-456 -455 0
457 -127 456 0
-457 127 0
-457 -456 0
458 127 -456 0
-458 -127 0
-458 456 0
459 457 458 0
-459 -457 0
-459 -458 0
460 -100 137 0
-460 100 0
-460 -137 0
461 100 -137 0
-461 -100 0
-461 137 0
462 460 461 0
-462 -460 0
-462 -461 0
463 168 462 0
-463 -168 0
-463 -462 0
464 -168 -462 0
-464 168 0
-464 462 0
465 463 464 0
-465 -463 0
-465 -464 0
466 -167 465 0
-466 167 0
-466 -465 0
467 167 -465 0
-467 -167 0
-467 465 0
468 466 467 0
-468 -466 0
-468 -467 0
469 -236 239 0
-469 236 0
-469 -239 0
470 236 -239 0
-470 -236 0
-470 239 0
471 469 470 0
-471 -469 0
-471 -470 0
472 252 -471 0
-472 -252 0
-472 471 0
473 -252 471 0
-473 252 0
-473 -471 0
474 472 473 0
-474 -472 0
-474 -473 0
475 -275 -474 0
-475 275 0
-475 474 0
476 274 -475 0
-476 -274 0
-476 475 0
477 -275 474 0
-477 275 0
-477 -474 0
478 -274 -477 0
-478 274 0
-478 477 0
479 -280 -474 0
-479 280 0
-479 474 0
480 -274 -479 0
-480 274 0
-480 479 0
481 -283 -474 0
-481 283 0
-481 474 0
482 -274 -481 0
-482 274 0
-482 481 0
483 476 478 0
-483 -476 0
-483 -478 0
484 480 -483 0
-484 -480 0
-484 483 0
485 482 -484 0
-485 -482 0
-485 484 0
486 118 -459 0
-486 -118 0
-486 459 0
487 468 -486 0
-487 -468 0
-487 486 0
488 -196 -487 0
-488 196 0
-488 487 0
489 485 -488 0
-489 -485 0
-489 488 0
490 81 -489 0
-490 -81 0
-490 489 0
491 1 -490 0
-491 -1 0
-491 490 0
492 -1 490 0
-492 1 0
-492 -490 0
493 491 492 0
-493 -491 0
-493 -492 0
494 233 -489 0
-494 -233 0
-494 489 0
495 2 -494 0
-495 -2 0
-495 494 0
496 -2 494 0
-496 2 0
-496 -494 0
497 495 496 0
-497 -495 0
-497 -496 0
498 474 -489 0
-498 -474 0
-498 489 0
499 3 -498 0
-499 -3 0
-499 498 0
500 -3 498 0
-500 3 0
-500 -498 0
501 499 500 0
-501 -499 0
-501 -500 0
502 274 -489 0
-502 -274 0
-502 489 0
503 4 -502 0
-503 -4 0
-503 502 0
504 -4 502 0
-504 4 0
-504 -502 0
505 503 504 0
-505 -503 0
-505 -504 0
506 -468 -486 0
-506 468 0
-506 486 0
507 196 -506 0
-507 -196 0
-507 506 0
508 485 -507 0
-508 -485 0
-508 507 0
509 81 -508 0
-509 -81 0
-509 508 0
510 5 -509 0
-510 -5 0
-510 509 0
511 -5 509 0
-511 5 0
-511 -509 0
512 510 511 0
-512 -510 0
-512 -511 0
513 233 -508 0
-513 -233 0
-513 508 0
514 6 -513 0
-514 -6 0
-514 513 0
515 -6 513 0
-515 6 0
-515 -513 0
516 514 515 0
-516 -514 0
-516 -515 0
517 474 -508 0
-517 -474 0
-517 508 0
518 7 -517 0
-518 -7 0
-518 517 0
519 -7 517 0
-519 7 0
-519 -517 0
520 518 519 0
-520 -518 0
-520 -519 0
521 274 -508 0
-521 -274 0
-521 508 0
522 8 -521 0
-522 -8 0
-522 521 0
523 -8 521 0
-523 8 0
-523 -521 0
524 522 523 0
-524 -522 0
-524 -523 0
525 -118 459 0
-525 118 0
-525 -459 0
526 468 -525 0
-526 -468 0
-526 525 0
527 -196 -526 0
-527 196 0
-527 526 0
528 485 -527 0
-528 -485 0
-528 527 0
529 81 -528 0
-529 -81 0
-529 528 0
530 9 -529 0
-530 -9 0
-530 529 0
531 -9 529 0
-531 9 0
-531 -529 0
532 530 531 0
-532 -530 0
-532 -531 0
533 233 -528 0
-533 -233 0
-533 528 0
534 10 -533 0
-534 -10 0
-534 533 0
535 -10 533 0
-535 10 0
-535 -533 0
536 534 535 0
-536 -534 0
-536 -535 0
537 474 -528 0
-537 -474 0
-537 528 0
538 11 -537 0
-538 -11 0
-538 537 0
539 -11 537 0
-539 11 0
-539 -537 0
540 538 539 0
-540 -538 0
-540 -539 0
541 274 -528 0
-541 -274 0
-541 528 0
542 12 -541 0
-542 -12 0
-542 541 0
543 -12 541 0
-543 12 0
-543 -541 0
544 542 543 0
-544 -542 0
-544 -543 0
545 -468 -525 0
-545 468 0
-545 525 0
546 196 -545 0
-546 -196 0
-546 545 0
547 485 -546 0
-547 -485 0
-547 546 0
548 81 -547 0
-548 -81 0
-548 547 0
549 13 -548 0
-549 -13 0
-549 548 0
550 -13 548 0
-550 13 0
-550 -548 0
551 549 550 0
-551 -549 0
-551 -550 0
552 233 -547 0
-552 -233 0
-552 547 0
553 14 -552 0
-553 -14 0
-553 552 0
554 -14 552 0
-554 14 0
-554 -552 0
555 553 554 0
-555 -553 0
-555 -554 0
556 474 -547 0
-556 -474 0
-556 547 0
557 15 -556 0
-557 -15 0
-557 556 0
558 -15 556 0
-558 15 0
-558 -556 0
559 557 558 0
-559 -557 0
-559 -558 0
560 274 -547 0
-560 -274 0
-560 547 0
561 16 -560 0
-561 -16 0
-561 560 0
562 -16 560 0
-562 16 0
-562 -560 0
563 561 562 0
-563 -561 0
-563 -562 0
564 -118 -459 0
-564 118 0
-564 459 0
565 -468 -564 0
-565 468 0
-565 564 0
566 196 -565 0
-566 -196 0
-566 565 0
567 468 -564 0
-567 -468 0
-567 564 0
568 -196 -567 0
-568 196 0
-568 567 0
569 -196 -545 0
-569 196 0
-569 545 0
570 -196 -506 0
-570 196 0
-570 506 0
571 566 568 0
-571 -566 0
-571 -568 0
572 569 -571 0
-572 -569 0
-572 571 0
573 570 -572 0
-573 -570 0
-573 572 0
574 -283 474 0
-574 283 0
-574 -474 0
575 -274 -574 0
-575 274 0
-575 574 0
576 573 -575 0
-576 -573 0
-576 575 0
577 118 -576 0
-577 -118 0
-577 576 0
578 17 -577 0
-578 -17 0
-578 577 0
579 -17 577 0
-579 17 0
-579 -577 0
580 578 579 0
-580 -578 0
-580 -579 0
581 459 -576 0
-581 -459 0
-581 576 0
582 18 -581 0
-582 -18 0
-582 581 0
583 -18 581 0
-583 18 0
-583 -581 0
584 582 583 0
-584 -582 0
-584 -583 0
585 468 -576 0
-585 -468 0
-585 576 0
586 19 -585 0
-586 -19 0
-586 585 0
587 -19 585 0
-587 19 0
-587 -585 0
588 586 587 0
-588 -586 0
-588 -587 0
589 196 -576 0
-589 -196 0
-589 576 0
590 20 -589 0
-590 -20 0
-590 589 0
591 -20 589 0
-591 20 0
-591 -589 0
592 590 591 0
-592 -590 0
-592 -591 0
593 274 -481 0
-593 -274 0
-593 481 0
594 573 -593 0
-594 -573 0
-594 593 0
595 118 -594 0
-595 -118 0
-595 594 0
596 21 -595 0
-596 -21 0
-596 595 0
597 -21 595 0
-597 21 0
-597 -595 0
598 596 597 0
-598 -596 0
-598 -597 0
599 459 -594 0
-599 -459 0
-599 594 0
600 22 -599 0
-600 -22 0
-600 599 0
601 -22 599 0
-601 22 0
-601 -599 0
602 600 601 0
-602 -600 0
-602 -601 0
603 468 -594 0
-603 -468 0
-603 594 0
604 23 -603 0
-604 -23 0
-604 603 0
605 -23 603 0
-605 23 0
-605 -603 0
606 604 605 0
-606 -604 0
-606 -605 0
607 196 -594 0
-607 -196 0
-607 594 0
608 24 -607 0
-608 -24 0
-608 607 0
609 -24 607 0
-609 24 0
-609 -607 0
610 608 609 0
-610 -608 0
-610 -609 0
611 -280 474 0
-611 280 0
-611 -474 0
612 -274 -611 0
-612 274 0
-612 611 0
613 573 -612 0
-613 -573 0
-613 612 0
614 118 -613 0
-614 -118 0
-614 613 0
615 25 -614 0
-615 -25 0
-615 614 0
616 -25 614 0
-616 25 0
-616 -614 0
617 615 616 0
-617 -615 0
-617 -616 0
618 459 -613 0
-618 -459 0
-618 613 0
619 26 -618 0
-619 -26 0
-619 618 0
620 -26 618 0
-620 26 0
-620 -618 0
621 619 620 0
-621 -619 0
-621 -620 0
622 468 -613 0
-622 -468 0
-622 613 0
623 27 -622 0
-623 -27 0
-623 622 0
624 -27 622 0
-624 27 0
-624 -622 0
625 623 624 0
-625 -623 0
-625 -624 0
626 196 -613 0
-626 -196 0
-626 613 0
627 28 -626 0
-627 -28 0
-627 626 0
628 -28 626 0
-628 28 0
-628 -626 0
629 627 628 0
-629 -627 0
-629 -628 0
630 274 -479 0
-630 -274 0
-630 479 0
631 573 -630 0
-631 -573 0
-631 630 0
632 118 -631 0
-632 -118 0
-632 631 0
633 29 -632 0
-633 -29 0
-633 632 0
634 -29 632 0
-634 29 0
-634 -632 0
635 633 634 0
-635 -633 0
-635 -634 0
636 459 -631 0
-636 -459 0
-636 631 0
637 30 -636 0
-637 -30 0
-637 636 0
638 -30 636 0
-638 30 0
-638 -636 0
639 637 638 0
-639 -637 0
-639 -638 0
640 468 -631 0
-640 -468 0
-640 631 0
641 31 -640 0
-641 -31 0
-641 640 0
642 -31 640 0
-642 31 0
-642 -640 0
643 641 642 0
-643 -641 0
-643 -642 0
644 196 -631 0
-644 -196 0
-644 631 0
645 32 -644 0
-645 -32 0
-645 644 0
646 -32 644 0
-646 32 0
-646 -644 0
647 645 646 0
-647 -645 0
-647 -646 0
648 -296 493 0
-648 296 0
-648 -493 0
649 296 -493 0
-649 -296 0
-649 493 0
650 648 649 0
-650 -648 0
-650 -649 0
651 -300 497 0
-651 300 0
-651 -497 0
652 300 -497 0
-652 -300 0
-652 497 0
653 651 652 0
-653 -651 0
-653 -652 0
654 -304 501 0
-654 304 0
-654 -501 0
655 304 -501 0
-655 -304 0
-655 501 0
656 654 655 0
-656 -654 0
-656 -655 0
657 -308 505 0
-657 308 0
-657 -505 0
658 308 -505 0
-658 -308 0
-658 505 0
659 657 658 0
-659 -657 0
-659 -658 0
660 -315 512 0
-660 315 0
-660 -512 0
661 315 -512 0
-661 -315 0
-661 512 0
662 660 661 0
-662 -660 0
-662 -661 0
663 -319 516 0
-663 319 0
-663 -516 0
664 319 -516 0
-664 -319 0
-664 516 0
665 663 664 0
-665 -663 0
-665 -664 0
666 -323 520 0
-666 323 0
-666 -520 0
667 323 -520 0
-667 -323 0
-667 520 0
668 666 667 0
-668 -666 0
-668 -667 0
669 -327 524 0
-669 327 0
-669 -524 0
670 327 -524 0
-670 -327 0
-670 524 0
671 669 670 0
-671 -669 0
-671 -670 0
672 -335 532 0
-672 335 0
-672 -532 0
673 335 -532 0
-673 -335 0
-673 532 0
674 672 673 0
-674 -672 0
-674 -673 0
675 -339 536 0
-675 339 0
-675 -536 0
676 339 -536 0
-676 -339 0
-676 536 0
677 675 676 0
-677 -675 0
-677 -676 0
678 -343 540 0
-678 343 0
-678 -540 0
679 343 -540 0
-679 -343 0
-679 540 0
680 678 679 0
-680 -678 0
-680 -679 0
681 -347 544 0
-681 347 0
-681 -544 0
682 347 -544 0
-682 -347 0
-682 544 0
683 681 682 0
-683 -681 0
-683 -682 0
684 -354 551 0
-684 354 0
-684 -551 0
685 354 -551 0
-685 -354 0
-685 551 0
686 684 685 0
-686 -684 0
-686 -685 0
687 -358 555 0
-687 358 0
-687 -555 0
688 358 -555 0
-688 -358 0
-688 555 0
689 687 688 0
-689 -687 0
-689 -688 0
690 -362 559 0
-690 362 0
-690 -559 0
691 362 -559 0
-691 -362 0
-691 559 0
692 690 691 0
-692 -690 0
-692 -691 0
693 -366 563 0
-693 366 0
-693 -563 0
694 366 -563 0
-694 -366 0
-694 563 0
695 693 694 0
-695 -693 0
-695 -694 0
696 -383 580 0
-696 383 0
-696 -580 0
697 383 -580 0
-697 -383 0
-697 580 0
698 696 697 0
-698 -696 0
-698 -697 0
699 -387 584 0
-699 387 0
-699 -584 0
700 387 -584 0
-700 -387 0
-700 584 0
701 699 700 0
-701 -699 0
-701 -700 0
702 -391 588 0
-702 391 0
-702 -588 0
703 391 -588 0
-703 -391 0
-703 588 0
704 702 703 0
-704 -702 0
-704 -703 0
705 -395 592 0
-705 395 0
-705 -592 0
706 395 -592 0
-706 -395 0
-706 592 0
707 705 706 0
-707 -705 0
-707 -706 0
708 -401 598 0
-708 401 0
-708 -598 0
709 401 -598 0
-709 -401 0
-709 598 0
710 708 709 0
-710 -708 0
-710 -709 0
711 -405 602 0
-711 405 0
-711 -602 0
712 405 -602 0
-712 -405 0
-712 602 0
713 711 712 0
-713 -711 0
-713 -712 0
714 -409 606 0
-714 409 0
-714 -606 0
715 409 -606 0
-715 -409 0
-715 606 0
716 714 715 0
-716 -714 0
-716 -715 0
717 -413 610 0
-717 413 0
-717 -610 0
718 413 -610 0
-718 -413 0
-718 610 0
719 717 718 0
-719 -717 0
-719 -718 0
720 -420 617 0
-720 420 0
-720 -617 0
721 420 -617 0
-721 -420 0
-721 617 0
722 720 721 0
-722 -720 0
-722 -721 0
723 -424 621 0
-723 424 0
-723 -621 0
724 424 -621 0
-724 -424 0
-724 621 0
725 723 724 0
-725 -723 0
-725 -724 0
726 -428 625 0
-726 428 0
-726 -625 0
727 428 -625 0
-727 -428 0
-727 625 0
728 726 727 0
-728 -726 0
-728 -727 0
729 -432 629 0
-729 432 0
-729 -629 0
730 432 -629 0
-730 -432 0
-730 629 0
731 729 730 0
-731 -729 0
-731 -730 0
732 -438 635 0
-732 438 0
-732 -635 0
733 438 -635 0
-733 -438 0
-733 635 0
734 732 733 0
-734 -732 0
-734 -733 0
735 -442 639 0
-735 442 0
-735 -639 0
736 442 -639 0
-736 -442 0
-736 639 0
737 735 736 0
-737 -735 0
-737 -736 0
738 -446 643 0
-738 446 0
-738 -643 0
739 446 -643 0
-739 -446 0
-739 643 0
740 738 739 0
-740 -738 0
-740 -739 0
741 -450 647 0
-741 450 0
-741 -647 0
742 450 -647 0
-742 -450 0
-742 647 0
743 741 742 0
-743 -741 0
-743 -742 0
744 -650 -653 0
-744 650 0
-744 653 0
745 -656 -659 0
-745 656 0
-745 659 0
746 -744 -745 0
-746 744 0
-746 745 0
747 -662 -665 0
-747 662 0
-747 665 0
748 -668 -671 0
-748 668 0
-748 671 0
749 -747 -748 0
-749 747 0
-749 748 0
750 -746 -749 0
-750 746 0
-750 749 0
751 -674 -677 0
-751 674 0
-751 677 0
752 -680 -683 0
-752 680 0
-752 683 0
753 -751 -752 0
-753 751 0
-753 752 0
754 -686 -689 0
-754 686 0
-754 689 0
755 -692 -695 0
-755 692 0
-755 695 0
756 -754 -755 0
-756 754 0
-756 755 0
757 -753 -756 0
-757 753 0
-757 756 0
758 -750 -757 0
-758 750 0
-758 757 0
759 -698 -701 0
-759 698 0
-759 701 0
760 -704 -707 0
-760 704 0
-760 707 0
761 -759 -760 0
-761 759 0
-761 760 0
762 -710 -713 0
-762 710 0
-762 713 0
763 -716 -719 0
-763 716 0
-763 719 0
764 -762 -763 0
-764 762 0
-764 763 0
765 -761 -764 0
-765 761 0
-765 764 0
766 -722 -725 0
-766 722 0
-766 725 0
767 -728 -731 0
-767 728 0
-767 731 0
768 -766 -767 0
-768 766 0
-768 767 0
769 -734 -737 0
-769 734 0
-769 737 0
770 -740 -743 0
-770 740 0
-770 743 0
771 -769 -770 0
-771 769 0
-771 770 0
772 -768 -771 0
-772 768 0
-772 771 0
773 -765 -772 0
-773 765 0
-773 772 0
774 -758 -773 0
-774 758 0
-774 773 0
44 774 0
-44 -774 0
44 0
42 -775 -781 0
-42 775 0
-42 781 0
781 -776 -777 0
-781 776 0
-781 777 0
43 -778 -782 0
-43 778 0
-43 782 0
782 -779 -780 0
-782 779 0
-782 780 0
